11
0 51 97 61 40 22 68 16 26 36 98 
75 0 78 67 63 89 19 66 55 85 7 
67 98 0 72 61 1 57 81 8 15 28 
27 75 22 0 24 31 63 92 90 28 38 
42 48 79 49 0 24 4 74 68 43 7 
40 61 16 28 42 0 50 46 69 29 91 
4 72 3 43 32 90 0 10 46 10 93 
67 95 49 20 83 22 63 0 31 16 85 
20 18 93 39 33 18 15 85 0 73 18 
75 44 79 16 4 3 9 40 91 0 9 
52 88 27 29 53 9 90 50 56 80 0 
